examples/taylor_sine/txt/taylor_sin_p_x_ge.txt
Bounds on variables: 
x (Real) in [-1 / 2, 1 / 2]

exact NVC: 
1 <= (cos 0)

0 == (sin 0)

(cos Pi) <= (-1 * 1)

0 == (sin Pi)

0 == (cos ((5 / 10) * Pi))

1 <= (sin ((5 / 10) * Pi))

NOT
  ((-1 * 48) * (1 / 100)) <= ((x - (((x * x) * x) / 6)) - 1769513 / 100000000000000)

